50
237 104 397 155 67 402 918 801 766 222 537 277 173 107 215 928 829 807 801 194 310 627 732 855 881 87 606 672 506 178 474 90 935 866 548 301 909 573 883 849 509 414 599 432 162 306 813 44 47 627 
237 102 396 153 66 402 918 801 765 222 537 276 171 105 213 927 828 807 801 192 309 627 732 855 879 87 606 672 504 177 474 90 933 864 546 300 909 573 882 849 507 414 597 432 162 306 813 42 45 627 
12263
